
Gurobi 9.5.1 (linux64) logging started Sun Jun 19 02:09:21 2022

Set parameter LogFile to value "../results/logs/log_soc-catster.e_21_2_2022_06_19_02_07.log"
Gurobi Optimizer version 9.5.1 build v9.5.1rc2 (linux64)
Thread count: 8 physical cores, 8 logical processors, using up to 8 threads
Optimize a model with 3001 rows, 299368 columns and 142345 nonzeros
Model fingerprint: 0x2b61d7bb
Variable types: 0 continuous, 299368 integer (299368 binary)
Coefficient statistics:
  Matrix range     [1e+00, 2e+01]
  Objective range  [1e+00, 1e+00]
  Bounds range     [1e+00, 1e+00]
  RHS range        [1e+00, 2e+00]
Found heuristic solution: objective 78945.000000
Presolve removed 2476 rows and 298584 columns
Presolve time: 0.22s
Presolved: 525 rows, 784 columns, 2823 nonzeros
Variable types: 0 continuous, 784 integer (678 binary)
Found heuristic solution: objective 78969.000000

Root relaxation: objective 7.904702e+04, 182 iterations, 0.00 seconds (0.00 work units)

    Nodes    |    Current Node    |     Objective Bounds      |     Work
 Expl Unexpl |  Obj  Depth IntInf | Incumbent    BestBd   Gap | It/Node Time

     0     0 79047.0199    0   51 78969.0000 79047.0199  0.10%     -    0s
H    0     0                    78974.000000 79047.0199  0.09%     -    0s
H    0     0                    78984.000000 79047.0199  0.08%     -    0s
     0     0 78998.4737    0   24 78984.0000 78998.4737  0.02%     -    0s
     0     0 78992.9772    0   13 78984.0000 78992.9772  0.01%     -    0s
     0     0 78992.6772    0   14 78984.0000 78992.6772  0.01%     -    0s
H    0     0                    78985.000000 78992.6772  0.01%     -    0s
     0     0 78990.5977    0   24 78985.0000 78990.5977  0.01%     -    0s
     0     0 78990.3315    0   28 78985.0000 78990.3315  0.01%     -    0s
     0     0 78990.3046    0   27 78985.0000 78990.3046  0.01%     -    0s
     0     0 78988.2817    0   30 78985.0000 78988.2817  0.00%     -    0s
     0     0 78988.2817    0   12 78985.0000 78988.2817  0.00%     -    0s
     0     0 78985.0000    0   17 78985.0000 78985.0000  0.00%     -    0s

Cutting planes:
  Gomory: 7
  Cover: 7
  MIR: 4
  StrongCG: 3
  GUB cover: 6

Explored 1 nodes (372 simplex iterations) in 0.38 seconds (0.24 work units)
Thread count was 8 (of 8 available processors)

Solution count 6: 78985 78984 78984 ... 78945

Optimal solution found (tolerance 0.00e+00)
Best objective 7.898500000000e+04, best bound 7.898500000000e+04, gap 0.0000%
